816
1   1   112  181  0 45 46 47 36 49 64 11 62 19 48 8 0
1   2   32   81   0 60 6 94 59 99 96 0
1   3   109  199  0 18 52 27 69 1 70 30 32 90 63 10 31 88 7 82 83 0
1   4   142  192  0 89 58 21 72 4 39 56 22 41 15 43 38 61 0
1   5   56   187  0 5 93 98 37 100 85 16 86 17 84 0
2   1   112  189  0 76 50 33 81 9 51 20 66 65 71 35 34 78 80 0
2   2   0    0    0 0
2   3   71   136  0 12 28 53 13 97 87 40 26 0
2   4   142  195  0 95 92 91 44 14 42 57 2 73 74 75 23 67 25 55 54 0
2   5   40   98   0 24 29 79 3 77 68 0